peakDumbCharging = 14800; 
Machine = anon_enum(16); 
machineSpeed = [3700,3700,3700,3700,3700,3700,3700,3700,3700,3700,3700,3700,3700,3700,3700,3700]; 
machineLoad = [3700,3700,3700,3700,3700,3700,3700,3700,3700,3700,3700,3700,3700,3700,3700,3700]; 
Car = anon_enum(19); 
demandCar = [5640,8320,14360,14280,4760,5800,3960,3120,24000,8840,8760,2320,5080,5520,2640,6280,3160,1120,4400]; 
arrivalCar = [78,71,66,64,57,53,52,46,45,44,44,43,41,40,39,39,38,35,34]; 
departureCar = [81,78,71,71,59,58,55,48,58,50,58,46,45,43,41,44,40,37,37]; 
